%Scalars
Students=80;
Disciplines=12;
Hospitals=4;
Duration=1;
Horizon=12;
Groups=2;
MaxDiscPerHosp=9;
%Data structures
DiscGroup = [1,1,1,1,1,1,2,2,2,2,2,2];

StudDiscGroup =[|
1, 0 |
1, 0 |
1, 5 |
4, 6 |
2, 2 |
3, 4 |
1, 6 |
2, 5 |
5, 1 |
5, 6 |
4, 4 |
1, 5 |
5, 6 |
6, 1 |
0, 3 |
2, 0 |
4, 1 |
1, 1 |
0, 6 |
2, 3 |
3, 0 |
4, 4 |
2, 1 |
5, 5 |
0, 3 |
1, 6 |
1, 0 |
3, 1 |
2, 0 |
0, 4 |
4, 3 |
2, 6 |
1, 1 |
4, 1 |
0, 1 |
0, 6 |
6, 4 |
4, 1 |
3, 5 |
0, 3 |
2, 1 |
1, 6 |
0, 4 |
2, 1 |
5, 0 |
3, 1 |
6, 6 |
1, 6 |
0, 4 |
5, 2 |
2, 6 |
6, 5 |
1, 6 |
3, 1 |
2, 3 |
0, 3 |
6, 4 |
0, 3 |
0, 2 |
6, 3 |
1, 4 |
5, 6 |
6, 0 |
2, 3 |
2, 4 |
6, 4 |
4, 1 |
4, 1 |
2, 1 |
0, 2 |
5, 2 |
3, 2 |
1, 1 |
4, 2 |
6, 1 |
1, 6 |
4, 4 |
1, 6 |
1, 3 |
2, 2 |];

AllowedDisc =[|
1, 1, 1, 1, 1, 1, 1, 1, 1, 1, 1, 1 |
1, 1, 1, 1, 1, 1, 1, 1, 1, 1, 1, 1 |
1, 1, 1, 1, 1, 1, 1, 1, 1, 1, 1, 1 |
1, 1, 1, 1, 1, 1, 1, 1, 1, 1, 1, 1 |
1, 1, 1, 1, 1, 1, 1, 1, 1, 1, 1, 1 |
1, 1, 1, 1, 1, 1, 1, 1, 1, 1, 1, 1 |
1, 1, 1, 1, 1, 1, 1, 1, 1, 1, 1, 1 |
1, 1, 1, 1, 1, 1, 1, 1, 1, 1, 1, 1 |
1, 1, 1, 1, 1, 1, 1, 1, 1, 1, 1, 1 |
1, 1, 1, 1, 1, 1, 1, 1, 1, 1, 1, 1 |
1, 1, 1, 1, 1, 1, 1, 1, 1, 1, 1, 1 |
1, 1, 1, 1, 1, 1, 1, 1, 1, 1, 1, 1 |
1, 1, 1, 1, 1, 1, 1, 1, 1, 1, 1, 1 |
1, 1, 1, 1, 1, 1, 1, 1, 1, 1, 1, 1 |
1, 1, 1, 1, 1, 1, 1, 1, 1, 1, 1, 1 |
1, 1, 1, 1, 1, 1, 1, 1, 1, 1, 1, 1 |
1, 1, 1, 1, 1, 1, 1, 1, 1, 1, 1, 1 |
1, 1, 1, 1, 1, 1, 1, 1, 1, 1, 1, 1 |
1, 1, 1, 1, 1, 1, 1, 1, 1, 1, 1, 1 |
1, 1, 1, 1, 1, 1, 1, 1, 1, 1, 1, 1 |
1, 1, 1, 1, 1, 1, 1, 1, 1, 1, 1, 1 |
1, 1, 1, 1, 1, 1, 1, 1, 1, 1, 1, 1 |
1, 1, 1, 1, 1, 1, 1, 1, 1, 1, 1, 1 |
1, 1, 1, 1, 1, 1, 1, 1, 1, 1, 1, 1 |
1, 1, 1, 1, 1, 1, 1, 1, 1, 1, 1, 1 |
1, 1, 1, 1, 1, 1, 1, 1, 1, 1, 1, 1 |
1, 1, 1, 1, 1, 1, 1, 1, 1, 1, 1, 1 |
1, 1, 1, 1, 1, 1, 1, 1, 1, 1, 1, 1 |
1, 1, 1, 1, 1, 1, 1, 1, 1, 1, 1, 1 |
1, 1, 1, 1, 1, 1, 1, 1, 1, 1, 1, 1 |
1, 1, 1, 1, 1, 1, 1, 1, 1, 1, 1, 1 |
1, 1, 1, 1, 1, 1, 1, 1, 1, 1, 1, 1 |
1, 1, 1, 1, 1, 1, 1, 1, 1, 1, 1, 1 |
1, 1, 1, 1, 1, 1, 1, 1, 1, 1, 1, 1 |
1, 1, 1, 1, 1, 1, 1, 1, 1, 1, 1, 1 |
1, 1, 1, 1, 1, 1, 1, 1, 1, 1, 1, 1 |
1, 1, 1, 1, 1, 1, 1, 1, 1, 1, 1, 1 |
1, 1, 1, 1, 1, 1, 1, 1, 1, 1, 1, 1 |
1, 1, 1, 1, 1, 1, 1, 1, 1, 1, 1, 1 |
1, 1, 1, 1, 1, 1, 1, 1, 1, 1, 1, 1 |
1, 1, 1, 1, 1, 1, 1, 1, 1, 1, 1, 1 |
1, 1, 1, 1, 1, 1, 1, 1, 1, 1, 1, 1 |
1, 1, 1, 1, 1, 1, 1, 1, 1, 1, 1, 1 |
1, 1, 1, 1, 1, 1, 1, 1, 1, 1, 1, 1 |
1, 1, 1, 1, 1, 1, 1, 1, 1, 1, 1, 1 |
1, 1, 1, 1, 1, 1, 1, 1, 1, 1, 1, 1 |
1, 1, 1, 1, 1, 1, 1, 1, 1, 1, 1, 1 |
1, 1, 1, 1, 1, 1, 1, 1, 1, 1, 1, 1 |
1, 1, 1, 1, 1, 1, 1, 1, 1, 1, 1, 1 |
1, 1, 1, 1, 1, 1, 1, 1, 1, 1, 1, 1 |
1, 1, 1, 1, 1, 1, 1, 1, 1, 1, 1, 1 |
1, 1, 1, 1, 1, 1, 1, 1, 1, 1, 1, 1 |
1, 1, 1, 1, 1, 1, 1, 1, 1, 1, 1, 1 |
1, 1, 1, 1, 1, 1, 1, 1, 1, 1, 1, 1 |
1, 1, 1, 1, 1, 1, 1, 1, 1, 1, 1, 1 |
1, 1, 1, 1, 1, 1, 1, 1, 1, 1, 1, 1 |
1, 1, 1, 1, 1, 1, 1, 1, 1, 1, 1, 1 |
1, 1, 1, 1, 1, 1, 1, 1, 1, 1, 1, 1 |
1, 1, 1, 1, 1, 1, 1, 1, 1, 1, 1, 1 |
1, 1, 1, 1, 1, 1, 1, 1, 1, 1, 1, 1 |
1, 1, 1, 1, 1, 1, 1, 1, 1, 1, 1, 1 |
1, 1, 1, 1, 1, 1, 1, 1, 1, 1, 1, 1 |
1, 1, 1, 1, 1, 1, 1, 1, 1, 1, 1, 1 |
1, 1, 1, 1, 1, 1, 1, 1, 1, 1, 1, 1 |
1, 1, 1, 1, 1, 1, 1, 1, 1, 1, 1, 1 |
1, 1, 1, 1, 1, 1, 1, 1, 1, 1, 1, 1 |
1, 1, 1, 1, 1, 1, 1, 1, 1, 1, 1, 1 |
1, 1, 1, 1, 1, 1, 1, 1, 1, 1, 1, 1 |
1, 1, 1, 1, 1, 1, 1, 1, 1, 1, 1, 1 |
1, 1, 1, 1, 1, 1, 1, 1, 1, 1, 1, 1 |
1, 1, 1, 1, 1, 1, 1, 1, 1, 1, 1, 1 |
1, 1, 1, 1, 1, 1, 1, 1, 1, 1, 1, 1 |
1, 1, 1, 1, 1, 1, 1, 1, 1, 1, 1, 1 |
1, 1, 1, 1, 1, 1, 1, 1, 1, 1, 1, 1 |
1, 1, 1, 1, 1, 1, 1, 1, 1, 1, 1, 1 |
1, 1, 1, 1, 1, 1, 1, 1, 1, 1, 1, 1 |
1, 1, 1, 1, 1, 1, 1, 1, 1, 1, 1, 1 |
1, 1, 1, 1, 1, 1, 1, 1, 1, 1, 1, 1 |
1, 1, 1, 1, 1, 1, 1, 1, 1, 1, 1, 1 |
1, 1, 1, 1, 1, 1, 1, 1, 1, 1, 1, 1 |];

Precededby =[|
0, 0, 0, 0, 0, 0, 0, 0, 0, 0, 0, 0 |
0, 0, 0, 0, 0, 0, 0, 0, 0, 0, 0, 0 |
0, 0, 0, 0, 0, 0, 0, 0, 0, 0, 0, 0 |
0, 0, 1, 0, 0, 0, 0, 0, 0, 0, 0, 0 |
1, 0, 1, 1, 0, 0, 0, 0, 0, 0, 0, 0 |
0, 0, 1, 1, 0, 0, 0, 0, 0, 0, 0, 0 |
0, 0, 0, 0, 0, 0, 0, 0, 0, 0, 0, 0 |
0, 0, 0, 0, 0, 0, 0, 0, 0, 0, 0, 0 |
0, 0, 0, 0, 0, 0, 0, 0, 0, 0, 0, 0 |
0, 0, 0, 0, 0, 0, 0, 1, 0, 0, 0, 0 |
0, 0, 0, 0, 0, 0, 0, 0, 0, 0, 0, 0 |
0, 0, 0, 0, 0, 0, 0, 0, 0, 0, 1, 0 |];

Availability =[|
1, 1, 1, 1, 1, 0, 1, 1, 0, 1, 1, 1 |
1, 1, 1, 1, 1, 0, 1, 1, 1, 0, 1, 1 |
1, 1, 1, 1, 0, 1, 1, 1, 1, 1, 1, 1 |
1, 1, 1, 0, 1, 1, 1, 1, 1, 1, 1, 1 |
0, 0, 1, 1, 0, 0, 1, 0, 1, 1, 1, 1 |
1, 1, 0, 1, 0, 1, 1, 1, 1, 1, 1, 0 |
1, 1, 1, 1, 1, 1, 0, 0, 1, 0, 1, 1 |
1, 1, 1, 1, 1, 1, 1, 1, 1, 1, 1, 1 |
1, 0, 1, 1, 1, 0, 1, 1, 1, 1, 1, 1 |
1, 1, 1, 1, 1, 1, 1, 1, 1, 1, 1, 1 |
1, 1, 1, 1, 1, 0, 1, 1, 1, 1, 1, 1 |
1, 1, 1, 0, 1, 1, 0, 1, 1, 1, 1, 0 |
1, 1, 1, 1, 1, 1, 1, 1, 1, 1, 1, 1 |
1, 1, 0, 0, 0, 1, 0, 1, 1, 1, 0, 1 |
0, 1, 1, 0, 1, 1, 1, 1, 1, 1, 1, 1 |
0, 0, 1, 1, 0, 0, 0, 1, 0, 0, 0, 1 |
0, 1, 1, 1, 0, 1, 1, 1, 0, 1, 0, 0 |
0, 1, 1, 1, 1, 1, 0, 1, 0, 1, 1, 1 |
1, 0, 0, 1, 1, 0, 1, 1, 0, 0, 1, 0 |
1, 1, 1, 1, 1, 1, 1, 1, 1, 1, 1, 1 |
0, 1, 1, 1, 0, 1, 0, 1, 0, 0, 1, 0 |
1, 1, 1, 1, 1, 1, 1, 1, 1, 0, 1, 1 |
1, 0, 0, 1, 1, 1, 1, 1, 0, 0, 0, 1 |
1, 0, 1, 1, 1, 1, 1, 0, 1, 1, 1, 1 |
1, 1, 1, 1, 1, 1, 1, 1, 1, 1, 1, 1 |
1, 1, 1, 1, 1, 1, 1, 1, 1, 1, 1, 1 |
0, 1, 1, 0, 0, 0, 1, 1, 0, 1, 1, 1 |
1, 1, 0, 1, 1, 1, 1, 0, 0, 0, 0, 0 |
1, 0, 0, 1, 1, 0, 1, 0, 0, 1, 0, 1 |
1, 1, 1, 0, 0, 1, 0, 1, 0, 0, 1, 1 |
1, 1, 1, 1, 1, 1, 0, 1, 1, 0, 1, 1 |
1, 1, 1, 1, 1, 1, 1, 1, 0, 1, 1, 1 |
1, 0, 0, 1, 1, 1, 0, 1, 1, 0, 1, 1 |
1, 1, 1, 1, 1, 1, 1, 1, 1, 1, 1, 0 |
1, 0, 0, 1, 1, 1, 1, 1, 1, 0, 1, 1 |
1, 1, 1, 1, 1, 0, 1, 1, 1, 0, 0, 1 |
1, 1, 1, 1, 1, 1, 1, 0, 1, 1, 1, 1 |
1, 1, 1, 1, 0, 1, 1, 0, 1, 1, 1, 1 |
1, 1, 0, 1, 1, 1, 1, 1, 1, 1, 0, 1 |
1, 1, 1, 1, 0, 1, 1, 1, 1, 1, 1, 1 |
1, 1, 0, 0, 1, 0, 0, 1, 1, 1, 1, 0 |
1, 1, 1, 1, 1, 1, 1, 0, 0, 0, 1, 1 |
1, 0, 0, 0, 1, 1, 0, 0, 1, 0, 1, 1 |
1, 0, 1, 1, 0, 0, 1, 0, 0, 0, 0, 1 |
1, 0, 1, 1, 0, 1, 1, 1, 1, 1, 1, 1 |
1, 1, 0, 0, 1, 0, 0, 1, 1, 0, 0, 1 |
1, 1, 1, 1, 1, 1, 1, 1, 1, 1, 1, 1 |
1, 0, 1, 1, 1, 1, 1, 1, 1, 1, 1, 1 |
0, 1, 1, 1, 1, 0, 1, 1, 1, 0, 0, 1 |
1, 0, 1, 1, 1, 1, 0, 0, 0, 1, 1, 1 |
0, 1, 1, 1, 1, 1, 1, 1, 0, 1, 1, 1 |
1, 1, 1, 1, 1, 1, 1, 1, 1, 0, 1, 1 |
1, 1, 1, 1, 1, 1, 1, 1, 1, 1, 1, 0 |
0, 0, 0, 1, 0, 0, 1, 1, 1, 0, 1, 1 |
1, 0, 1, 1, 0, 1, 1, 1, 1, 1, 1, 0 |
0, 0, 1, 1, 1, 1, 1, 1, 1, 1, 1, 0 |
1, 1, 1, 1, 1, 1, 1, 1, 1, 1, 1, 1 |
0, 1, 1, 0, 1, 1, 1, 1, 1, 1, 1, 1 |
1, 1, 1, 1, 0, 1, 1, 1, 0, 0, 1, 0 |
1, 1, 1, 1, 1, 1, 1, 1, 1, 0, 0, 1 |
1, 1, 1, 1, 1, 1, 1, 1, 1, 1, 1, 1 |
1, 1, 1, 1, 1, 1, 1, 1, 1, 1, 1, 1 |
0, 0, 1, 1, 1, 1, 0, 0, 1, 1, 1, 0 |
0, 1, 1, 1, 1, 0, 1, 0, 1, 1, 1, 1 |
1, 1, 1, 1, 1, 1, 1, 1, 1, 0, 1, 0 |
1, 1, 1, 1, 0, 1, 0, 1, 1, 1, 1, 1 |
1, 1, 1, 1, 1, 1, 1, 1, 1, 1, 1, 1 |
1, 1, 0, 0, 1, 0, 1, 1, 1, 1, 0, 1 |
1, 1, 0, 0, 0, 1, 1, 1, 1, 0, 0, 0 |
1, 1, 1, 0, 1, 1, 1, 1, 1, 1, 0, 1 |
1, 1, 1, 1, 0, 1, 1, 1, 1, 1, 1, 0 |
1, 1, 1, 1, 0, 0, 0, 1, 1, 1, 0, 1 |
0, 1, 0, 0, 0, 1, 1, 0, 1, 0, 0, 1 |
1, 1, 1, 0, 1, 1, 1, 1, 1, 1, 1, 1 |
1, 1, 1, 1, 1, 1, 1, 1, 1, 1, 1, 1 |
0, 1, 0, 1, 1, 1, 1, 1, 1, 0, 1, 1 |
1, 1, 0, 1, 0, 1, 1, 1, 1, 1, 1, 0 |
0, 1, 1, 1, 1, 1, 1, 1, 1, 1, 1, 1 |
1, 1, 1, 1, 0, 0, 1, 0, 0, 1, 0, 1 |
0, 0, 0, 1, 1, 1, 1, 1, 0, 0, 1, 1 |];

Ability =
 array3d(1..Students,1..Hospitals,1..Disciplines,[
1, 1, 1, 1, 1, 1, 1, 1, 1, 1, 1, 1 ,
1, 1, 1, 1, 1, 1, 1, 0, 1, 1, 1, 1 ,
1, 1, 1, 1, 1, 1, 1, 1, 1, 1, 1, 0 ,
1, 1, 1, 1, 1, 1, 1, 1, 1, 1, 0, 1 ,
1, 1, 1, 1, 1, 1, 1, 1, 1, 1, 1, 1 ,
1, 1, 1, 1, 1, 1, 1, 1, 1, 1, 1, 1 ,
1, 1, 1, 1, 1, 1, 0, 1, 1, 1, 1, 1 ,
1, 1, 1, 1, 1, 1, 1, 0, 1, 1, 1, 1 ,
1, 1, 1, 1, 1, 1, 1, 1, 1, 1, 1, 1 ,
1, 1, 1, 1, 0, 1, 1, 1, 1, 1, 1, 1 ,
1, 1, 1, 1, 1, 1, 1, 1, 1, 1, 1, 1 ,
1, 1, 1, 1, 1, 1, 1, 0, 1, 1, 1, 0 ,
1, 1, 1, 1, 1, 1, 1, 1, 1, 1, 1, 1 ,
1, 1, 1, 1, 1, 1, 1, 1, 1, 1, 1, 1 ,
1, 1, 1, 1, 1, 1, 1, 1, 1, 1, 1, 1 ,
1, 1, 1, 1, 1, 1, 1, 1, 1, 1, 1, 1 ,
1, 1, 1, 1, 1, 1, 1, 1, 1, 1, 1, 1 ,
0, 1, 1, 1, 1, 1, 1, 1, 1, 1, 1, 1 ,
1, 1, 1, 1, 1, 1, 1, 1, 1, 0, 1, 1 ,
1, 1, 1, 1, 1, 1, 0, 1, 1, 1, 1, 1 ,
1, 1, 1, 1, 1, 1, 1, 1, 1, 1, 1, 1 ,
1, 1, 1, 1, 1, 1, 1, 1, 1, 1, 1, 0 ,
1, 1, 1, 1, 1, 1, 1, 1, 1, 1, 1, 1 ,
1, 1, 1, 1, 1, 1, 1, 1, 1, 1, 1, 1 ,
1, 1, 1, 1, 1, 1, 1, 1, 1, 0, 1, 1 ,
1, 1, 1, 1, 1, 1, 1, 1, 1, 1, 1, 1 ,
1, 1, 1, 1, 1, 1, 1, 1, 1, 1, 1, 1 ,
1, 0, 1, 1, 1, 1, 1, 1, 1, 1, 1, 1 ,
0, 1, 1, 1, 1, 1, 1, 1, 1, 1, 0, 1 ,
1, 1, 1, 1, 1, 1, 1, 1, 1, 1, 1, 0 ,
1, 1, 1, 1, 1, 1, 1, 1, 0, 1, 1, 0 ,
1, 1, 1, 1, 1, 1, 1, 1, 1, 1, 1, 1 ,
1, 1, 1, 1, 1, 1, 1, 1, 1, 1, 1, 1 ,
1, 1, 1, 1, 1, 1, 1, 1, 1, 1, 1, 1 ,
0, 1, 1, 1, 0, 1, 1, 1, 1, 1, 1, 0 ,
1, 1, 1, 1, 1, 1, 1, 1, 1, 1, 1, 1 ,
1, 1, 1, 1, 1, 1, 1, 1, 1, 1, 1, 1 ,
1, 1, 1, 1, 1, 1, 1, 1, 1, 1, 1, 1 ,
1, 1, 1, 1, 0, 1, 1, 1, 1, 1, 1, 1 ,
1, 1, 0, 1, 1, 1, 1, 1, 1, 1, 1, 1 ,
1, 1, 1, 1, 0, 1, 1, 1, 1, 1, 1, 1 ,
0, 0, 1, 1, 1, 1, 1, 1, 1, 1, 1, 1 ,
1, 1, 1, 1, 1, 1, 1, 1, 1, 1, 1, 1 ,
1, 0, 1, 1, 1, 1, 0, 0, 1, 1, 1, 1 ,
1, 1, 0, 1, 1, 1, 1, 1, 1, 1, 1, 1 ,
1, 1, 0, 1, 1, 1, 1, 1, 1, 1, 1, 1 ,
1, 1, 1, 1, 1, 1, 1, 1, 1, 1, 1, 1 ,
1, 1, 1, 1, 1, 1, 1, 0, 1, 1, 1, 1 ,
1, 1, 1, 1, 1, 1, 1, 1, 1, 1, 1, 1 ,
1, 1, 1, 1, 1, 1, 1, 1, 1, 1, 1, 1 ,
1, 1, 1, 1, 1, 1, 1, 1, 1, 0, 1, 1 ,
1, 1, 1, 1, 1, 1, 1, 1, 1, 1, 1, 1 ,
1, 1, 1, 1, 1, 1, 1, 1, 1, 1, 0, 1 ,
1, 1, 1, 1, 1, 1, 1, 1, 1, 1, 1, 0 ,
1, 1, 1, 1, 1, 1, 1, 1, 1, 1, 1, 1 ,
1, 1, 1, 1, 1, 1, 1, 1, 1, 1, 1, 1 ,
1, 0, 1, 1, 1, 1, 1, 1, 1, 1, 1, 1 ,
1, 1, 1, 1, 1, 1, 1, 1, 1, 1, 1, 1 ,
1, 1, 1, 1, 1, 1, 1, 1, 1, 1, 1, 1 ,
1, 1, 1, 1, 1, 1, 1, 1, 1, 1, 1, 1 ,
1, 1, 1, 1, 1, 1, 1, 1, 1, 1, 1, 1 ,
0, 0, 1, 1, 0, 1, 1, 1, 1, 1, 1, 1 ,
1, 1, 1, 1, 1, 1, 1, 1, 1, 1, 1, 1 ,
1, 1, 1, 1, 1, 1, 0, 1, 1, 1, 1, 1 ,
1, 1, 1, 1, 1, 1, 1, 1, 1, 1, 1, 1 ,
1, 1, 1, 1, 1, 1, 1, 1, 1, 1, 1, 1 ,
1, 1, 1, 1, 1, 1, 1, 1, 0, 1, 1, 1 ,
1, 1, 1, 1, 1, 1, 1, 1, 1, 1, 1, 1 ,
1, 1, 1, 1, 1, 0, 1, 1, 1, 1, 1, 1 ,
1, 1, 1, 1, 1, 1, 1, 1, 1, 1, 1, 1 ,
1, 1, 1, 1, 1, 1, 1, 1, 1, 1, 1, 1 ,
1, 1, 1, 1, 1, 1, 1, 1, 1, 1, 1, 1 ,
1, 1, 1, 1, 1, 1, 1, 1, 1, 1, 1, 1 ,
1, 1, 1, 1, 1, 1, 1, 1, 1, 1, 1, 1 ,
1, 1, 1, 1, 1, 1, 1, 1, 1, 1, 1, 1 ,
1, 1, 1, 1, 0, 0, 1, 1, 1, 1, 1, 1 ,
1, 1, 1, 1, 1, 1, 1, 1, 1, 1, 1, 1 ,
1, 1, 1, 1, 1, 1, 1, 1, 0, 1, 1, 1 ,
1, 1, 1, 1, 1, 1, 1, 0, 1, 1, 1, 1 ,
1, 1, 1, 1, 1, 1, 1, 1, 1, 1, 1, 1 ,
1, 0, 1, 1, 1, 1, 1, 1, 1, 1, 1, 1 ,
1, 1, 1, 1, 1, 1, 1, 1, 1, 1, 0, 1 ,
1, 1, 1, 1, 1, 1, 1, 0, 1, 1, 1, 1 ,
1, 1, 0, 1, 1, 1, 1, 1, 1, 1, 1, 1 ,
1, 1, 1, 1, 1, 0, 1, 1, 1, 1, 1, 1 ,
1, 1, 1, 1, 1, 1, 1, 1, 0, 1, 1, 1 ,
1, 1, 0, 1, 1, 1, 1, 1, 1, 1, 1, 1 ,
1, 1, 1, 1, 1, 1, 1, 1, 1, 1, 1, 1 ,
1, 1, 1, 1, 1, 1, 1, 1, 1, 1, 1, 1 ,
1, 1, 1, 1, 1, 1, 1, 1, 1, 1, 1, 1 ,
1, 1, 1, 1, 1, 1, 1, 1, 1, 1, 1, 1 ,
1, 1, 1, 1, 1, 1, 1, 1, 1, 1, 1, 1 ,
1, 1, 1, 1, 1, 0, 0, 1, 1, 1, 1, 1 ,
1, 1, 1, 1, 1, 1, 1, 1, 1, 1, 1, 1 ,
1, 1, 1, 1, 1, 1, 1, 1, 1, 1, 1, 1 ,
1, 1, 1, 1, 1, 1, 1, 1, 1, 1, 1, 1 ,
1, 1, 1, 1, 0, 1, 1, 1, 0, 1, 1, 1 ,
1, 1, 1, 1, 1, 1, 1, 1, 1, 1, 1, 1 ,
1, 0, 1, 1, 1, 1, 1, 0, 1, 1, 1, 1 ,
1, 1, 1, 1, 1, 1, 0, 1, 0, 1, 1, 1 ,
1, 0, 1, 1, 1, 1, 1, 1, 1, 1, 1, 0 ,
1, 1, 1, 1, 1, 1, 1, 1, 1, 1, 1, 1 ,
1, 1, 1, 1, 1, 1, 1, 1, 1, 1, 1, 1 ,
1, 1, 1, 1, 1, 1, 1, 1, 1, 1, 1, 1 ,
1, 1, 1, 1, 1, 1, 1, 1, 1, 1, 1, 1 ,
1, 1, 1, 1, 1, 1, 1, 1, 1, 1, 1, 1 ,
1, 1, 1, 1, 1, 1, 1, 1, 1, 1, 1, 1 ,
1, 0, 1, 1, 1, 1, 1, 1, 1, 1, 1, 1 ,
1, 0, 1, 1, 1, 1, 1, 1, 1, 1, 1, 1 ,
1, 1, 1, 1, 1, 1, 1, 1, 1, 1, 1, 1 ,
1, 1, 1, 1, 1, 1, 0, 1, 1, 1, 1, 1 ,
1, 1, 1, 1, 1, 1, 1, 1, 1, 1, 1, 1 ,
1, 1, 1, 1, 1, 1, 1, 1, 1, 1, 1, 1 ,
1, 1, 1, 1, 1, 1, 1, 1, 1, 1, 1, 1 ,
1, 1, 1, 1, 1, 1, 1, 1, 1, 1, 1, 1 ,
1, 1, 1, 1, 1, 1, 1, 1, 1, 1, 1, 1 ,
1, 1, 1, 1, 1, 1, 1, 1, 1, 1, 0, 1 ,
1, 1, 1, 1, 1, 1, 0, 1, 1, 1, 1, 1 ,
1, 1, 1, 1, 1, 1, 1, 1, 1, 1, 1, 1 ,
1, 1, 1, 1, 1, 1, 1, 1, 1, 0, 1, 1 ,
1, 1, 1, 1, 1, 1, 1, 1, 1, 1, 1, 1 ,
1, 1, 1, 1, 0, 1, 0, 1, 1, 1, 1, 1 ,
0, 1, 1, 1, 1, 1, 1, 1, 1, 1, 1, 1 ,
1, 1, 1, 1, 1, 1, 1, 1, 1, 1, 1, 1 ,
1, 1, 1, 1, 1, 1, 1, 1, 1, 1, 1, 1 ,
1, 1, 1, 1, 1, 1, 0, 0, 1, 1, 1, 1 ,
1, 1, 1, 1, 0, 1, 1, 1, 1, 1, 1, 1 ,
1, 0, 1, 1, 1, 1, 0, 1, 1, 1, 1, 1 ,
1, 1, 1, 1, 1, 1, 1, 1, 1, 1, 1, 1 ,
1, 1, 1, 1, 1, 1, 1, 1, 1, 1, 1, 1 ,
1, 1, 1, 1, 1, 1, 1, 1, 1, 1, 0, 1 ,
1, 1, 1, 1, 1, 1, 1, 1, 1, 1, 1, 1 ,
1, 1, 1, 0, 1, 1, 1, 1, 1, 1, 1, 1 ,
1, 0, 1, 1, 1, 1, 1, 1, 1, 1, 1, 1 ,
1, 1, 1, 1, 1, 0, 1, 1, 1, 1, 1, 1 ,
1, 1, 1, 1, 1, 1, 1, 1, 1, 1, 0, 1 ,
1, 1, 1, 1, 1, 1, 1, 1, 1, 1, 1, 1 ,
1, 1, 1, 1, 1, 1, 1, 1, 1, 1, 1, 1 ,
1, 1, 1, 1, 0, 1, 1, 1, 1, 1, 0, 1 ,
1, 1, 1, 0, 1, 1, 1, 1, 1, 1, 1, 1 ,
1, 1, 1, 1, 0, 1, 1, 1, 1, 0, 1, 1 ,
1, 1, 0, 1, 1, 1, 1, 1, 1, 1, 1, 1 ,
0, 1, 1, 1, 1, 1, 1, 1, 1, 1, 1, 1 ,
1, 1, 1, 1, 1, 1, 1, 1, 1, 1, 1, 1 ,
1, 1, 1, 1, 1, 1, 1, 1, 1, 1, 1, 1 ,
1, 1, 1, 1, 1, 1, 1, 1, 1, 1, 1, 1 ,
1, 1, 1, 1, 1, 1, 1, 1, 0, 1, 1, 1 ,
1, 1, 1, 0, 1, 1, 1, 1, 1, 1, 1, 1 ,
0, 1, 1, 1, 1, 1, 1, 1, 1, 1, 1, 1 ,
1, 1, 1, 1, 1, 1, 1, 1, 1, 1, 1, 1 ,
1, 1, 1, 1, 1, 1, 1, 1, 1, 1, 1, 1 ,
1, 1, 1, 1, 1, 1, 1, 1, 1, 1, 1, 1 ,
1, 0, 1, 1, 1, 1, 1, 1, 1, 1, 1, 1 ,
1, 1, 1, 1, 1, 1, 1, 0, 1, 1, 1, 1 ,
1, 1, 1, 1, 1, 0, 1, 1, 1, 1, 1, 1 ,
1, 1, 1, 1, 1, 1, 1, 1, 1, 1, 1, 1 ,
1, 1, 1, 1, 1, 1, 1, 1, 1, 1, 1, 0 ,
1, 1, 1, 1, 1, 1, 1, 1, 1, 1, 1, 1 ,
1, 1, 0, 0, 1, 1, 1, 1, 1, 1, 1, 1 ,
1, 1, 1, 1, 1, 1, 1, 1, 1, 1, 1, 1 ,
1, 1, 1, 1, 1, 1, 1, 0, 1, 1, 1, 1 ,
1, 1, 1, 1, 1, 1, 1, 1, 1, 1, 0, 1 ,
1, 1, 1, 1, 1, 1, 1, 1, 1, 1, 1, 1 ,
1, 1, 1, 1, 1, 1, 1, 1, 1, 1, 1, 1 ,
1, 1, 1, 1, 1, 1, 1, 1, 1, 1, 1, 1 ,
1, 1, 1, 1, 1, 1, 1, 1, 1, 1, 1, 1 ,
1, 1, 1, 1, 1, 1, 1, 1, 1, 1, 1, 1 ,
1, 1, 1, 1, 1, 1, 1, 1, 1, 1, 1, 1 ,
1, 1, 1, 1, 1, 1, 1, 1, 1, 1, 1, 1 ,
1, 1, 1, 1, 1, 1, 1, 1, 1, 1, 1, 1 ,
1, 1, 1, 1, 1, 1, 1, 1, 1, 1, 1, 1 ,
1, 1, 1, 1, 1, 0, 1, 1, 1, 1, 1, 1 ,
1, 1, 1, 1, 1, 1, 1, 1, 1, 1, 1, 1 ,
1, 1, 1, 1, 1, 1, 1, 1, 1, 1, 1, 1 ,
1, 1, 1, 1, 1, 1, 1, 1, 1, 1, 1, 1 ,
1, 1, 1, 1, 1, 1, 1, 1, 1, 0, 1, 1 ,
0, 1, 1, 1, 1, 1, 1, 1, 1, 1, 1, 1 ,
1, 1, 1, 1, 1, 1, 1, 1, 0, 1, 1, 1 ,
1, 1, 1, 1, 1, 1, 1, 1, 1, 1, 1, 1 ,
1, 1, 1, 1, 1, 1, 1, 1, 1, 1, 1, 1 ,
0, 1, 1, 1, 1, 1, 1, 1, 1, 1, 1, 1 ,
1, 1, 1, 1, 1, 1, 1, 1, 1, 1, 1, 1 ,
1, 1, 0, 1, 1, 1, 1, 1, 1, 1, 1, 1 ,
1, 1, 1, 1, 1, 1, 1, 1, 1, 1, 1, 1 ,
1, 1, 1, 1, 1, 1, 1, 1, 1, 1, 0, 1 ,
1, 1, 1, 1, 1, 1, 1, 1, 1, 1, 1, 0 ,
1, 0, 1, 1, 1, 1, 1, 0, 1, 1, 1, 1 ,
1, 1, 1, 1, 1, 1, 1, 1, 1, 1, 1, 1 ,
1, 0, 1, 1, 1, 1, 1, 1, 1, 1, 1, 1 ,
1, 1, 0, 1, 1, 1, 1, 1, 1, 1, 1, 1 ,
1, 1, 1, 1, 1, 1, 1, 1, 1, 1, 1, 1 ,
1, 1, 1, 1, 1, 1, 1, 1, 1, 1, 1, 1 ,
0, 1, 1, 1, 1, 1, 1, 1, 0, 1, 1, 1 ,
1, 1, 1, 1, 1, 1, 1, 0, 1, 1, 1, 1 ,
1, 1, 1, 1, 1, 1, 1, 1, 1, 1, 1, 1 ,
1, 1, 1, 1, 1, 0, 1, 1, 1, 1, 1, 0 ,
1, 1, 1, 1, 1, 1, 1, 1, 1, 1, 1, 1 ,
1, 1, 1, 1, 1, 1, 1, 1, 1, 1, 1, 1 ,
1, 1, 1, 1, 1, 1, 1, 1, 1, 1, 1, 1 ,
1, 1, 1, 1, 0, 1, 1, 1, 1, 1, 1, 1 ,
1, 1, 0, 1, 1, 1, 1, 1, 1, 1, 1, 0 ,
1, 1, 1, 1, 1, 1, 1, 1, 1, 0, 1, 1 ,
1, 1, 1, 1, 1, 1, 1, 1, 1, 1, 1, 1 ,
1, 1, 1, 1, 1, 1, 1, 1, 1, 1, 0, 1 ,
1, 1, 1, 1, 1, 1, 1, 1, 1, 1, 1, 1 ,
1, 1, 1, 1, 1, 0, 1, 1, 1, 1, 1, 1 ,
1, 1, 1, 1, 1, 1, 1, 1, 1, 1, 0, 1 ,
1, 1, 1, 1, 1, 1, 1, 1, 1, 1, 1, 1 ,
1, 1, 1, 1, 1, 1, 1, 1, 1, 1, 1, 1 ,
1, 1, 1, 1, 1, 1, 1, 1, 1, 1, 1, 1 ,
1, 1, 1, 1, 1, 1, 1, 0, 1, 1, 1, 1 ,
1, 1, 1, 1, 1, 1, 1, 1, 1, 1, 1, 1 ,
1, 1, 1, 1, 1, 1, 1, 1, 1, 1, 1, 1 ,
1, 1, 1, 0, 1, 1, 1, 1, 1, 1, 1, 1 ,
1, 1, 1, 1, 1, 1, 1, 1, 1, 1, 1, 1 ,
1, 1, 1, 0, 1, 1, 1, 1, 1, 0, 1, 1 ,
1, 1, 1, 1, 0, 1, 0, 1, 1, 1, 1, 1 ,
1, 1, 0, 1, 1, 1, 1, 1, 1, 1, 1, 1 ,
1, 1, 1, 1, 1, 1, 1, 1, 1, 1, 1, 1 ,
1, 1, 1, 1, 0, 1, 1, 1, 1, 1, 1, 1 ,
1, 1, 1, 1, 1, 1, 1, 1, 1, 1, 1, 1 ,
1, 1, 1, 1, 1, 1, 1, 1, 1, 1, 1, 1 ,
1, 1, 1, 1, 0, 1, 1, 1, 1, 1, 1, 1 ,
1, 1, 1, 1, 1, 1, 1, 1, 1, 1, 1, 1 ,
1, 1, 1, 1, 1, 1, 1, 1, 1, 1, 1, 1 ,
1, 1, 1, 1, 1, 0, 1, 1, 1, 1, 1, 1 ,
1, 1, 1, 0, 1, 1, 1, 1, 1, 1, 1, 1 ,
1, 1, 1, 1, 1, 1, 1, 1, 1, 1, 1, 1 ,
1, 1, 1, 1, 1, 1, 1, 1, 1, 1, 0, 1 ,
1, 1, 1, 1, 1, 1, 1, 1, 1, 1, 1, 1 ,
1, 1, 1, 0, 1, 1, 1, 1, 1, 1, 1, 1 ,
0, 1, 1, 1, 1, 1, 1, 1, 1, 1, 1, 1 ,
1, 1, 1, 1, 1, 1, 1, 1, 1, 1, 1, 0 ,
1, 1, 1, 1, 1, 1, 1, 1, 1, 1, 1, 1 ,
1, 1, 1, 1, 1, 0, 1, 1, 1, 1, 1, 1 ,
1, 1, 1, 1, 1, 1, 1, 1, 1, 1, 1, 1 ,
1, 1, 1, 0, 1, 1, 1, 1, 1, 1, 1, 1 ,
1, 1, 1, 1, 1, 1, 1, 1, 1, 1, 1, 1 ,
1, 1, 1, 1, 1, 1, 1, 1, 0, 0, 1, 1 ,
1, 1, 1, 1, 1, 1, 1, 1, 1, 1, 1, 1 ,
1, 0, 1, 1, 1, 1, 1, 1, 1, 1, 1, 1 ,
1, 1, 1, 1, 1, 1, 1, 1, 1, 1, 1, 1 ,
1, 1, 1, 1, 0, 1, 1, 1, 1, 1, 1, 1 ,
1, 0, 1, 1, 1, 1, 0, 1, 1, 1, 0, 1 ,
1, 1, 1, 1, 1, 1, 1, 1, 1, 1, 1, 1 ,
1, 1, 1, 1, 1, 1, 1, 1, 1, 0, 1, 1 ,
1, 1, 1, 1, 1, 1, 1, 1, 1, 1, 1, 1 ,
1, 1, 1, 1, 1, 0, 1, 1, 1, 1, 1, 1 ,
1, 1, 1, 0, 1, 1, 1, 1, 1, 1, 1, 1 ,
1, 0, 1, 1, 1, 1, 1, 1, 1, 0, 1, 1 ,
1, 1, 1, 1, 1, 1, 1, 1, 1, 1, 1, 1 ,
1, 1, 1, 1, 1, 1, 1, 1, 1, 1, 1, 1 ,
1, 1, 1, 1, 1, 1, 1, 1, 1, 1, 1, 1 ,
1, 1, 1, 1, 1, 1, 0, 1, 1, 1, 1, 1 ,
1, 1, 1, 1, 1, 1, 1, 1, 1, 1, 1, 1 ,
1, 1, 1, 1, 1, 1, 1, 1, 1, 1, 1, 1 ,
1, 1, 1, 1, 1, 1, 1, 1, 1, 1, 1, 1 ,
1, 1, 1, 1, 1, 1, 1, 1, 1, 1, 1, 1 ,
1, 1, 1, 1, 1, 1, 1, 1, 1, 1, 1, 1 ,
1, 1, 1, 1, 1, 1, 1, 1, 1, 1, 1, 1 ,
1, 1, 1, 1, 1, 0, 1, 1, 1, 1, 1, 1 ,
1, 1, 1, 1, 1, 0, 1, 1, 1, 1, 1, 1 ,
0, 1, 1, 1, 1, 1, 1, 1, 1, 1, 1, 1 ,
1, 1, 1, 1, 1, 1, 1, 1, 1, 1, 1, 1 ,
1, 1, 1, 1, 1, 1, 1, 1, 1, 1, 1, 1 ,
1, 1, 0, 1, 1, 1, 1, 1, 1, 1, 1, 1 ,
1, 1, 1, 1, 1, 1, 1, 1, 0, 1, 1, 1 ,
1, 1, 1, 1, 1, 1, 0, 1, 1, 1, 1, 1 ,
0, 1, 1, 0, 1, 1, 1, 1, 1, 1, 1, 1 ,
1, 1, 1, 1, 1, 1, 1, 1, 0, 1, 1, 1 ,
1, 1, 1, 1, 1, 1, 1, 1, 1, 0, 1, 1 ,
1, 1, 1, 1, 1, 1, 1, 1, 1, 1, 1, 1 ,
1, 1, 1, 1, 1, 1, 1, 1, 1, 1, 1, 0 ,
0, 1, 1, 1, 1, 1, 1, 1, 1, 1, 1, 1 ,
1, 1, 1, 1, 1, 1, 1, 1, 1, 1, 1, 1 ,
1, 1, 1, 1, 1, 1, 1, 1, 1, 1, 1, 1 ,
0, 1, 0, 1, 1, 1, 0, 1, 1, 1, 1, 1 ,
1, 1, 1, 1, 1, 0, 0, 1, 1, 1, 1, 1 ,
1, 1, 0, 1, 1, 1, 1, 1, 1, 1, 1, 1 ,
1, 1, 1, 1, 1, 1, 1, 1, 1, 1, 1, 1 ,
1, 1, 1, 1, 1, 1, 1, 1, 1, 1, 1, 1 ,
1, 1, 1, 1, 1, 1, 1, 1, 1, 0, 1, 1 ,
1, 1, 1, 1, 1, 1, 1, 1, 1, 1, 1, 1 ,
1, 1, 1, 1, 1, 1, 1, 1, 1, 1, 0, 1 ,
1, 1, 1, 1, 1, 1, 1, 0, 1, 1, 1, 1 ,
1, 1, 1, 1, 1, 1, 1, 1, 1, 0, 1, 1 ,
1, 1, 1, 1, 1, 1, 1, 0, 1, 1, 1, 1 ,
1, 1, 1, 1, 1, 1, 1, 1, 1, 1, 1, 1 ,
1, 1, 1, 1, 1, 1, 1, 1, 1, 1, 1, 1 ,
1, 1, 1, 1, 1, 1, 1, 1, 1, 1, 1, 1 ,
1, 1, 1, 1, 1, 1, 1, 1, 1, 1, 1, 1 ,
1, 1, 1, 1, 0, 1, 1, 1, 1, 1, 1, 1 ,
1, 1, 1, 1, 1, 1, 1, 1, 1, 1, 1, 1 ,
1, 1, 1, 1, 1, 1, 1, 1, 1, 1, 1, 1 ,
1, 1, 1, 1, 1, 1, 1, 1, 1, 1, 1, 1 ,
1, 1, 1, 0, 1, 1, 1, 1, 0, 1, 1, 0 ,
1, 1, 1, 1, 1, 1, 0, 1, 1, 1, 1, 1 ,
1, 1, 1, 1, 1, 1, 1, 1, 1, 1, 1, 1 ,
0, 1, 1, 1, 0, 1, 1, 1, 1, 1, 1, 1 ,
1, 1, 1, 1, 1, 1, 1, 1, 1, 1, 1, 1 ,
1, 1, 1, 1, 1, 1, 1, 1, 1, 1, 1, 1 ,
1, 0, 1, 1, 1, 1, 1, 1, 1, 1, 1, 1 ,
1, 1, 1, 1, 1, 1, 1, 1, 1, 1, 1, 1 ,
1, 1, 1, 1, 1, 1, 1, 1, 0, 1, 1, 1 ,
1, 1, 1, 0, 1, 1, 1, 1, 1, 1, 1, 1 ,
1, 1, 1, 1, 1, 1, 1, 1, 1, 1, 1, 1 ,
1, 1, 1, 1, 0, 1, 1, 1, 1, 1, 1, 1 ,
1, 1, 1, 1, 1, 0, 1, 1, 1, 1, 1, 1 ,
1, 1, 1, 1, 1, 1, 1, 1, 1, 1, 1, 1 ,
1, 1, 1, 1, 1, 1, 1, 1, 1, 1, 1, 1 ,
1, 1, 1, 1, 1, 1, 1, 1, 1, 1, 1, 1 ,
1, 1, 1, 1, 1, 1, 1, 1, 1, 1, 1, 1 ,
1, 1, 1, 1, 1, 1, 1, 1, 1, 0, 1, 1 ,
1, 1, 1, 1, 1, 1, 1, 1, 1, 1, 1, 1 ,
1, 1, 1, 1, 1, 1, 1, 1, 1, 1, 1, 1 ,
1, 1, 1, 1, 1, 1, 1, 1, 1, 1, 1, 0 ,
1, 1, 1, 1, 1, 1, 1, 1, 1, 1, 1, 1 ,
1, 1, 1, 1, 1, 1, 1, 1, 1, 1, 1, 1 ,
1, 1, 1, 1, 1, 1, 1, 1, 1, 1, 1, 1 ,
1, 1, 1, 1, 1, 1, 1, 1, 1, 1, 1, 1]);

MaxPosHosp =
 array3d(1..Hospitals, 1..Disciplines, 1..Horizon,[
12, 8, 17, 9, 16, 10, 16, 13, 13, 8, 12, 16 ,
8, 16, 15, 16, 14, 14, 10, 17, 17, 11, 9, 8 ,
8, 11, 14, 17, 13, 15, 10, 10, 9, 15, 13, 17 ,
13, 8, 12, 8, 11, 16, 17, 10, 14, 12, 15, 9 ,
12, 16, 15, 17, 9, 8, 15, 13, 16, 12, 12, 15 ,
10, 11, 15, 17, 14, 13, 10, 15, 12, 10, 13, 12 ,
12, 17, 10, 9, 15, 9, 13, 9, 17, 11, 17, 13 ,
10, 17, 17, 12, 11, 14, 9, 10, 17, 10, 8, 13 ,
15, 15, 8, 10, 9, 17, 15, 8, 8, 14, 14, 16 ,
12, 12, 15, 13, 17, 12, 14, 11, 9, 11, 13, 13 ,
11, 14, 10, 11, 17, 9, 14, 17, 9, 14, 9, 16 ,
16, 14, 17, 15, 10, 13, 13, 16, 8, 8, 9, 16 ,
11, 17, 16, 14, 10, 13, 17, 15, 8, 14, 10, 15 ,
14, 8, 8, 15, 12, 11, 14, 8, 17, 9, 16, 14 ,
12, 8, 17, 11, 10, 17, 14, 17, 17, 16, 14, 16 ,
17, 10, 12, 15, 15, 16, 9, 11, 8, 17, 13, 10 ,
13, 17, 11, 17, 16, 10, 15, 9, 12, 16, 13, 15 ,
15, 9, 16, 16, 13, 17, 9, 11, 14, 11, 8, 10 ,
13, 14, 12, 9, 8, 15, 13, 10, 14, 11, 13, 17 ,
9, 14, 8, 14, 9, 15, 11, 14, 17, 12, 15, 8 ,
9, 17, 9, 16, 10, 14, 17, 11, 15, 14, 15, 17 ,
13, 17, 11, 17, 8, 14, 14, 11, 15, 15, 12, 15 ,
16, 14, 8, 11, 8, 8, 16, 12, 8, 9, 17, 12 ,
8, 11, 11, 12, 12, 12, 14, 16, 10, 12, 14, 14 ,
11, 14, 13, 13, 11, 12, 16, 10, 9, 15, 10, 8 ,
8, 10, 17, 16, 16, 12, 14, 14, 16, 11, 11, 14 ,
11, 16, 15, 9, 12, 17, 8, 13, 11, 10, 14, 8 ,
14, 10, 14, 15, 15, 15, 17, 11, 17, 8, 14, 8 ,
8, 14, 9, 10, 10, 11, 11, 16, 16, 16, 11, 11 ,
16, 14, 11, 13, 17, 11, 8, 17, 14, 11, 13, 16 ,
11, 10, 11, 8, 16, 17, 8, 17, 12, 17, 10, 10 ,
15, 9, 16, 14, 12, 16, 12, 12, 17, 15, 12, 15 ,
9, 11, 8, 9, 17, 8, 17, 16, 13, 17, 11, 13 ,
11, 16, 10, 10, 12, 10, 10, 15, 11, 16, 11, 17 ,
12, 13, 10, 13, 11, 13, 17, 17, 11, 11, 12, 12 ,
14, 12, 11, 14, 14, 9, 15, 9, 16, 8, 13, 8 ,
9, 11, 15, 14, 11, 9, 8, 17, 16, 15, 11, 11 ,
9, 17, 11, 16, 17, 12, 12, 15, 12, 14, 8, 14 ,
11, 17, 9, 10, 11, 15, 8, 12, 11, 14, 9, 9 ,
10, 16, 13, 11, 12, 8, 16, 12, 17, 10, 10, 11 ,
14, 8, 14, 9, 11, 17, 10, 14, 16, 16, 15, 11 ,
11, 9, 9, 12, 9, 10, 15, 14, 13, 16, 13, 15 ,
16, 12, 13, 17, 17, 8, 10, 10, 8, 10, 14, 10 ,
15, 10, 8, 17, 9, 16, 10, 11, 8, 10, 13, 12 ,
13, 12, 8, 10, 8, 13, 15, 11, 17, 13, 8, 12 ,
12, 13, 17, 9, 15, 9, 17, 11, 17, 14, 10, 9 ,
16, 13, 13, 12, 16, 9, 17, 10, 14, 13, 12, 11 ,
12, 12, 8, 11, 13, 10, 15, 13, 12, 12, 13, 14]);

MinPosHosp =
 array3d(1..Hospitals, 1..Disciplines, 1..Horizon,[
0, 0, 0, 0, 0, 0, 0, 1, 0, 0, 0, 0 ,
0, 0, 0, 0, 1, 0, 0, 0, 0, 0, 0, 0 ,
0, 0, 0, 0, 0, 0, 0, 0, 0, 1, 1, 0 ,
0, 0, 0, 0, 0, 0, 0, 0, 0, 0, 1, 0 ,
0, 0, 0, 0, 0, 0, 0, 0, 0, 0, 0, 0 ,
0, 0, 0, 0, 0, 0, 0, 0, 0, 0, 0, 0 ,
0, 0, 0, 0, 1, 1, 0, 0, 0, 0, 0, 0 ,
0, 0, 0, 0, 0, 0, 0, 0, 0, 0, 0, 0 ,
1, 0, 1, 0, 0, 0, 0, 0, 0, 0, 0, 0 ,
0, 1, 0, 0, 0, 1, 1, 0, 0, 0, 0, 0 ,
0, 0, 0, 0, 0, 0, 0, 0, 0, 1, 0, 0 ,
0, 0, 0, 0, 0, 0, 0, 0, 1, 1, 0, 0 ,
1, 0, 0, 0, 0, 0, 0, 0, 0, 0, 1, 0 ,
0, 0, 0, 0, 1, 0, 1, 1, 0, 0, 0, 1 ,
0, 0, 1, 0, 1, 1, 1, 0, 0, 0, 0, 1 ,
0, 0, 1, 0, 0, 0, 1, 1, 0, 0, 0, 0 ,
0, 0, 0, 0, 0, 0, 0, 1, 0, 0, 0, 0 ,
0, 0, 0, 0, 0, 0, 1, 1, 0, 0, 0, 0 ,
0, 1, 0, 0, 0, 0, 0, 0, 0, 0, 0, 0 ,
0, 0, 0, 0, 0, 0, 0, 0, 0, 0, 1, 1 ,
1, 0, 1, 0, 0, 0, 0, 0, 0, 1, 0, 1 ,
0, 0, 0, 0, 0, 0, 0, 1, 1, 1, 0, 0 ,
0, 0, 0, 1, 0, 0, 0, 0, 1, 0, 0, 0 ,
0, 0, 0, 0, 0, 0, 0, 0, 0, 0, 1, 0 ,
0, 0, 1, 0, 0, 0, 0, 0, 0, 0, 0, 0 ,
0, 0, 0, 1, 0, 1, 1, 0, 0, 0, 0, 0 ,
0, 1, 0, 1, 1, 0, 0, 0, 0, 0, 0, 0 ,
0, 1, 0, 0, 0, 0, 0, 0, 1, 0, 0, 0 ,
0, 0, 0, 1, 0, 0, 0, 0, 0, 0, 0, 0 ,
0, 0, 0, 0, 0, 0, 0, 0, 0, 0, 0, 0 ,
0, 1, 0, 0, 0, 0, 0, 0, 0, 0, 0, 0 ,
1, 0, 0, 0, 0, 1, 0, 0, 1, 0, 0, 0 ,
0, 1, 1, 0, 0, 0, 0, 1, 0, 1, 0, 1 ,
0, 0, 0, 1, 1, 1, 0, 0, 0, 0, 1, 0 ,
0, 0, 0, 0, 0, 0, 0, 0, 0, 0, 0, 0 ,
0, 0, 0, 0, 0, 0, 0, 0, 0, 0, 0, 0 ,
0, 0, 0, 0, 1, 0, 0, 1, 0, 0, 0, 0 ,
0, 1, 0, 0, 0, 0, 0, 0, 0, 0, 0, 0 ,
0, 0, 0, 0, 0, 0, 0, 0, 0, 0, 1, 0 ,
0, 0, 0, 0, 0, 0, 0, 1, 0, 0, 0, 1 ,
0, 0, 0, 1, 0, 0, 0, 0, 0, 0, 0, 0 ,
0, 0, 0, 0, 0, 0, 0, 1, 0, 0, 0, 0 ,
0, 0, 0, 0, 0, 0, 0, 0, 0, 0, 0, 0 ,
0, 0, 0, 0, 0, 1, 0, 0, 0, 0, 0, 0 ,
1, 0, 0, 0, 0, 0, 0, 0, 0, 0, 0, 0 ,
0, 0, 0, 0, 0, 0, 0, 0, 0, 0, 0, 0 ,
0, 0, 0, 0, 0, 0, 0, 0, 0, 0, 0, 0 ,
0, 0, 0, 0, 0, 0, 1, 0, 0, 0, 0, 0]);

%W_disc W_hosp W_change W_wait
WeightPref=[|
2,2,-2,-3 |
2,3,-1,-2 |
2,3,-3,-3 |
1,1,-1,-3 |
1,3,-2,-3 |
1,1,-1,-1 |
3,2,-2,-2 |
2,3,-3,-1 |
1,2,-2,-2 |
3,3,-3,-1 |
3,1,-1,-1 |
2,1,-3,-1 |
1,3,-3,-2 |
1,3,-1,-2 |
3,3,-2,-3 |
3,3,-2,-2 |
3,2,-3,-2 |
2,1,-3,-3 |
1,3,-3,-3 |
1,3,-1,-3 |
2,2,-1,-2 |
3,2,-2,-3 |
1,2,-1,-2 |
1,1,-2,-1 |
1,1,-3,-2 |
3,1,-3,-2 |
2,3,-1,-3 |
1,3,-3,-1 |
1,2,-1,-3 |
2,2,-2,-2 |
3,3,-2,-1 |
3,3,-1,-2 |
1,3,-2,-1 |
3,1,-1,-2 |
1,1,-1,-1 |
1,2,-2,-1 |
3,2,-2,-1 |
1,3,-3,-1 |
1,3,-2,-1 |
2,2,-2,-2 |
3,3,-3,-3 |
1,2,-1,-2 |
2,3,-1,-1 |
3,1,-2,-2 |
2,3,-1,-2 |
1,1,-3,-1 |
3,3,-1,-1 |
1,2,-3,-3 |
3,2,-3,-2 |
3,1,-1,-1 |
1,2,-3,-2 |
3,2,-2,-3 |
2,2,-1,-1 |
1,2,-1,-2 |
1,1,-2,-3 |
3,2,-1,-1 |
2,1,-2,-2 |
3,3,-1,-1 |
2,2,-1,-1 |
3,1,-2,-2 |
1,2,-1,-1 |
3,3,-1,-2 |
3,1,-1,-1 |
3,1,-1,-2 |
2,2,-3,-2 |
1,3,-2,-1 |
1,1,-1,-1 |
2,1,-3,-1 |
1,1,-1,-3 |
3,3,-1,-3 |
1,3,-1,-1 |
3,3,-2,-2 |
3,3,-1,-2 |
1,3,-3,-2 |
3,2,-3,-3 |
3,2,-3,-2 |
3,2,-2,-3 |
1,1,-1,-1 |
3,2,-2,-3 |
3,3,-2,-2 |];

PrefStudDisc =[|
3, 1, 2, 3, 3, 3, 3, 1, 2, 2, 2, 2 |
5, 1, 2, 5, 1, 4, 4, 4, 3, 5, 3, 4 |
1, 3, 1, 2, 3, 4, 2, 2, 1, 2, 1, 5 |
3, 2, 3, 2, 3, 3, 5, 4, 4, 4, 4, 4 |
5, 5, 1, 4, 1, 1, 1, 3, 4, 1, 3, 5 |
5, 3, 3, 2, 5, 5, 2, 2, 2, 4, 1, 2 |
4, 3, 1, 5, 4, 3, 1, 2, 4, 1, 2, 2 |
5, 4, 1, 4, 1, 5, 3, 5, 2, 3, 4, 4 |
5, 1, 4, 5, 4, 4, 4, 5, 5, 5, 4, 3 |
2, 2, 2, 1, 3, 4, 2, 4, 1, 1, 3, 1 |
1, 2, 4, 3, 2, 5, 5, 1, 5, 4, 5, 4 |
4, 3, 5, 1, 1, 1, 4, 2, 4, 2, 2, 5 |
4, 3, 4, 3, 3, 1, 5, 4, 4, 5, 3, 4 |
2, 5, 1, 4, 2, 3, 2, 5, 5, 2, 3, 1 |
5, 4, 3, 2, 1, 2, 4, 2, 3, 5, 1, 4 |
2, 5, 5, 4, 3, 3, 2, 3, 5, 2, 1, 3 |
1, 2, 3, 3, 1, 1, 2, 1, 3, 4, 2, 5 |
2, 1, 3, 2, 1, 5, 5, 5, 3, 1, 2, 4 |
3, 3, 4, 3, 1, 2, 2, 2, 2, 1, 1, 3 |
4, 3, 5, 5, 5, 2, 2, 4, 3, 5, 5, 5 |
4, 1, 1, 4, 4, 1, 1, 2, 3, 5, 3, 1 |
5, 2, 2, 1, 3, 5, 5, 2, 2, 2, 1, 2 |
2, 4, 4, 2, 5, 5, 5, 5, 2, 3, 4, 1 |
2, 4, 1, 5, 2, 4, 5, 2, 2, 3, 4, 4 |
4, 1, 3, 5, 1, 2, 4, 4, 1, 5, 5, 2 |
1, 4, 1, 5, 3, 1, 5, 1, 4, 4, 1, 2 |
4, 5, 1, 4, 1, 2, 2, 2, 3, 1, 3, 2 |
5, 3, 4, 5, 1, 4, 4, 3, 1, 5, 5, 4 |
1, 4, 2, 5, 4, 3, 1, 5, 4, 1, 2, 2 |
3, 1, 4, 5, 3, 1, 2, 4, 5, 2, 3, 2 |
4, 1, 2, 1, 1, 5, 4, 2, 4, 3, 4, 3 |
2, 5, 3, 1, 5, 5, 3, 2, 5, 5, 4, 5 |
4, 2, 5, 3, 1, 3, 3, 4, 3, 2, 5, 2 |
4, 3, 1, 3, 3, 5, 4, 1, 2, 1, 4, 2 |
2, 4, 1, 2, 3, 1, 3, 4, 5, 5, 5, 3 |
1, 1, 3, 2, 4, 5, 4, 1, 4, 4, 2, 3 |
2, 4, 5, 1, 4, 1, 4, 3, 3, 5, 2, 2 |
3, 4, 5, 5, 4, 1, 4, 2, 4, 4, 3, 1 |
3, 5, 1, 1, 1, 4, 2, 3, 5, 3, 5, 4 |
2, 1, 4, 5, 4, 5, 1, 4, 4, 5, 2, 1 |
4, 1, 2, 2, 1, 3, 1, 5, 4, 2, 2, 4 |
5, 3, 5, 1, 3, 2, 1, 2, 1, 4, 5, 3 |
3, 5, 1, 2, 3, 2, 3, 5, 4, 1, 5, 1 |
5, 5, 2, 3, 1, 2, 2, 4, 2, 5, 2, 2 |
3, 2, 4, 3, 3, 5, 5, 2, 3, 1, 2, 5 |
5, 3, 1, 5, 3, 3, 3, 5, 3, 5, 1, 3 |
2, 5, 3, 5, 1, 5, 1, 1, 3, 2, 4, 2 |
5, 2, 4, 2, 2, 2, 3, 4, 2, 4, 5, 3 |
5, 1, 1, 3, 5, 3, 5, 5, 5, 4, 5, 1 |
2, 3, 3, 5, 4, 4, 5, 5, 5, 4, 1, 1 |
3, 4, 3, 5, 4, 4, 4, 2, 4, 5, 4, 2 |
1, 3, 3, 2, 4, 3, 1, 4, 2, 5, 1, 1 |
2, 2, 1, 2, 3, 3, 2, 4, 4, 2, 1, 4 |
5, 3, 1, 2, 5, 5, 3, 1, 4, 5, 3, 5 |
5, 4, 3, 2, 4, 1, 2, 5, 3, 5, 5, 5 |
2, 2, 5, 5, 2, 2, 4, 1, 5, 3, 3, 4 |
2, 5, 5, 1, 3, 4, 4, 1, 1, 1, 2, 2 |
2, 4, 3, 1, 1, 1, 5, 4, 4, 5, 5, 4 |
5, 4, 4, 1, 2, 2, 3, 3, 5, 2, 1, 1 |
3, 3, 4, 2, 1, 1, 1, 2, 3, 3, 1, 4 |
1, 1, 1, 5, 2, 5, 2, 4, 5, 5, 1, 4 |
5, 5, 4, 3, 3, 5, 3, 3, 2, 5, 5, 1 |
5, 4, 3, 5, 1, 5, 4, 5, 4, 2, 2, 4 |
2, 3, 5, 4, 2, 3, 4, 5, 5, 2, 1, 4 |
2, 2, 5, 2, 1, 5, 1, 2, 2, 1, 5, 1 |
1, 5, 5, 2, 3, 1, 3, 4, 4, 3, 2, 5 |
2, 3, 2, 3, 5, 5, 1, 3, 4, 1, 4, 1 |
1, 3, 1, 4, 2, 1, 1, 4, 1, 5, 1, 5 |
5, 2, 4, 5, 4, 1, 4, 1, 1, 4, 2, 1 |
4, 4, 4, 3, 3, 2, 5, 3, 1, 2, 4, 2 |
2, 4, 5, 4, 3, 1, 4, 2, 4, 2, 2, 3 |
4, 2, 5, 5, 5, 4, 3, 1, 5, 3, 1, 4 |
5, 3, 1, 2, 3, 1, 1, 3, 4, 4, 1, 4 |
3, 1, 5, 2, 2, 2, 2, 2, 1, 2, 5, 4 |
2, 2, 2, 2, 3, 4, 3, 1, 3, 1, 4, 5 |
4, 3, 1, 3, 3, 4, 2, 2, 1, 3, 5, 1 |
2, 1, 4, 3, 4, 5, 4, 2, 5, 5, 2, 2 |
1, 2, 2, 3, 2, 3, 5, 1, 1, 3, 5, 3 |
1, 4, 3, 1, 4, 3, 3, 3, 2, 3, 5, 4 |
4, 4, 3, 1, 3, 2, 4, 2, 1, 2, 1, 5 |];

PrefStudHosp =[|
1, 3, 2, 1 |
2, 1, 2, 3 |
5, 1, 3, 4 |
5, 5, 1, 1 |
5, 2, 5, 1 |
2, 4, 3, 3 |
3, 2, 5, 1 |
1, 3, 3, 5 |
3, 2, 1, 1 |
3, 1, 5, 3 |
1, 3, 2, 2 |
2, 5, 2, 4 |
5, 1, 2, 5 |
4, 1, 1, 5 |
3, 4, 4, 3 |
4, 4, 5, 2 |
5, 1, 1, 3 |
3, 4, 4, 1 |
5, 5, 3, 1 |
1, 5, 5, 3 |
5, 4, 4, 4 |
1, 2, 4, 2 |
2, 4, 4, 4 |
3, 4, 1, 5 |
4, 2, 3, 5 |
4, 1, 4, 2 |
4, 3, 3, 2 |
5, 2, 5, 3 |
1, 4, 2, 1 |
2, 2, 4, 4 |
3, 3, 5, 3 |
3, 1, 5, 5 |
5, 5, 2, 4 |
3, 1, 1, 1 |
2, 5, 1, 1 |
1, 5, 4, 4 |
2, 5, 3, 2 |
1, 4, 1, 4 |
3, 3, 3, 1 |
1, 2, 2, 5 |
4, 4, 4, 2 |
3, 1, 4, 2 |
5, 1, 5, 2 |
4, 2, 3, 1 |
5, 1, 3, 2 |
2, 5, 4, 2 |
3, 5, 5, 2 |
3, 3, 5, 4 |
2, 4, 5, 3 |
1, 2, 5, 4 |
3, 5, 5, 3 |
3, 3, 5, 2 |
5, 3, 4, 3 |
3, 2, 5, 1 |
1, 3, 5, 1 |
2, 2, 4, 2 |
2, 5, 5, 2 |
4, 5, 3, 2 |
5, 3, 3, 1 |
3, 1, 4, 1 |
3, 2, 5, 5 |
5, 4, 3, 5 |
3, 5, 2, 3 |
2, 4, 5, 5 |
4, 1, 4, 1 |
3, 1, 3, 1 |
5, 4, 1, 1 |
4, 4, 2, 2 |
3, 2, 3, 5 |
2, 3, 4, 4 |
2, 1, 5, 3 |
2, 1, 4, 2 |
1, 2, 4, 5 |
5, 3, 2, 5 |
5, 2, 2, 2 |
2, 3, 1, 4 |
5, 3, 1, 4 |
5, 3, 4, 3 |
3, 2, 2, 4 |
4, 4, 5, 2 |];

ManPref=[3,5,5,5,3,2,0,2,3,4,4,1];

%% Instance features:
%Scalars :80 , 12 , 1 , 12 , 4 , 0.75
%Occupancy: 0.0618357
%Excess: 0.176339
%Busyness: 0.466667
%Density: 0.121212
%Depth: 2